(set-logic HORN)
(declare-fun state (Int (Array Int Int) (Array Int Int) (Array Int Int) Int Int (Array Int Int) (Array Int Int) Int Int Int Int Int Int Int Int Int Int Int Int Int Int Int Int Int Int Int Bool Bool Bool Bool Bool Int Int (Array Int Int)) Bool)
(assert (forall ((|A_16| Int) (|B_16| (Array Int Int)) (|C_16| (Array Int Int)) (|D_16| (Array Int Int)) (|E_16| Int) (|F_16| Int) (|G_16| (Array Int Int)) (|H_16| (Array Int Int)) (|I_16| Int) (|J_16| Int) (|K_16| Int) (|L_16| Int) (|M_16| Int) (|N_16| Int) (|O_16| Int) (|P_16| Int) (|Q_16| Int) (|R_16| Int) (|S_16| Int) (|T_16| Int) (|U_16| Int) (|V_16| Int) (|W_16| Int) (|X_16| Int) (|Y_16| Int) (|Z_16| Int) (|A1_16| Int) (|C1_9| Bool) (|.loc.5| Bool) (|.loc.6| Bool) (|.loc.7| Bool) (|.loc.8| Bool) (|D1_2| Int) (|E1_1| Int) (|C1_0| (Array Int Int)) (|.x.446| Int) (|.x.444| (Array Int Int)) (|.x.442| Int) (|.x.440| (Array Int Int)) (|.x.437| Int) (|.x.439| (Array Int Int)) (|.x.438| (Array Int Int)) (|B1_16| Bool) (|.x.447| Int) (|.x.453| Int) (|.x.455| Int) (|.x.456| Int) (|.x.457| Int) (|.x.459| Int) (|.loc.10| Bool) (|.loc.12| Bool) (|.loc.11| Bool) (|.x.461| Int) (|.x.448| Int) (|.x.462| Int) (|.x.463| Int) (|.loc.9| Bool) (|.x.452| Int) (|.x.449| Int) (|.x.451| Int) (|.x.450| Int) (|.x.460| Int) (|.x.458| Int) (|.x.443| (Array Int Int)) (|.x.441| Int) (|.x.445| Int) (|.x.454| Int) (|.xtv.1| Int) (|.xtv.2| Int) (|.xtv.3| (Array Int Int))) (=> (and (and (and (and .loc.6 (not .loc.5)) (not .loc.7)) (not .loc.8)) (and (and (and (and (= G_16 H_16) (not C1_9)) (= E_16 F_16)) (= B_16 C_16)) (= I_16 J_16))) (state |A_16| |B_16| |C_16| |D_16| |E_16| |F_16| |G_16| |H_16| |I_16| |J_16| |K_16| |L_16| |M_16| |N_16| |O_16| |P_16| |Q_16| |R_16| |S_16| |T_16| |U_16| |V_16| |W_16| |X_16| |Y_16| |Z_16| |A1_16| |C1_9| |.loc.5| |.loc.6| |.loc.7| |.loc.8| |D1_2| |E1_1| |C1_0|))))
(assert (forall ((|A_16| Int) (|B_16| (Array Int Int)) (|C_16| (Array Int Int)) (|D_16| (Array Int Int)) (|E_16| Int) (|F_16| Int) (|G_16| (Array Int Int)) (|H_16| (Array Int Int)) (|I_16| Int) (|J_16| Int) (|K_16| Int) (|L_16| Int) (|M_16| Int) (|N_16| Int) (|O_16| Int) (|P_16| Int) (|Q_16| Int) (|R_16| Int) (|S_16| Int) (|T_16| Int) (|U_16| Int) (|V_16| Int) (|W_16| Int) (|X_16| Int) (|Y_16| Int) (|Z_16| Int) (|A1_16| Int) (|C1_9| Bool) (|.loc.5| Bool) (|.loc.6| Bool) (|.loc.7| Bool) (|.loc.8| Bool) (|D1_2| Int) (|E1_1| Int) (|C1_0| (Array Int Int)) (|.x.446| Int) (|.x.444| (Array Int Int)) (|.x.442| Int) (|.x.440| (Array Int Int)) (|.x.437| Int) (|.x.439| (Array Int Int)) (|.x.438| (Array Int Int)) (|B1_16| Bool) (|.x.447| Int) (|.x.453| Int) (|.x.455| Int) (|.x.456| Int) (|.x.457| Int) (|.x.459| Int) (|.loc.10| Bool) (|.loc.12| Bool) (|.loc.11| Bool) (|.x.461| Int) (|.x.448| Int) (|.x.462| Int) (|.x.463| Int) (|.loc.9| Bool) (|.x.452| Int) (|.x.449| Int) (|.x.451| Int) (|.x.450| Int) (|.x.460| Int) (|.x.458| Int) (|.x.443| (Array Int Int)) (|.x.441| Int) (|.x.445| Int) (|.x.454| Int) (|.xtv.1| Int) (|.xtv.2| Int) (|.xtv.3| (Array Int Int))) (=> (and (state |A_16| |B_16| |C_16| |D_16| |E_16| |F_16| |G_16| |H_16| |I_16| |J_16| |K_16| |L_16| |M_16| |N_16| |O_16| |P_16| |Q_16| |R_16| |S_16| |T_16| |U_16| |V_16| |W_16| |X_16| |Y_16| |Z_16| |A1_16| |C1_9| |.loc.5| |.loc.6| |.loc.7| |.loc.8| |D1_2| |E1_1| |C1_0|) (let ((.def_45 (not .loc.5))) (let ((.def_47 (not .loc.7))) (let ((.def_49 (not .loc.8))) (let ((.def_79 (= B_16 .x.438))) (let ((.def_83 (= K_16 .x.447))) (let ((.def_86 (= Q_16 .x.453))) (let ((.def_89 (= S_16 .x.455))) (let ((.def_92 (= T_16 .x.456))) (let ((.def_95 (= U_16 .x.457))) (let ((.def_98 (= W_16 .x.459))) (let ((.def_114 (not .loc.6))) (let ((.def_118 (= C1_9 B1_16))) (let ((.def_123 (not .loc.10))) (let ((.def_127 (not .loc.11))) (let ((.def_130 (= L_16 0))) (let ((.def_132 (and .def_79 .def_83))) (let ((.def_137 (and .def_98 (and .def_95 (and .def_92 (and .def_89 (and .def_86 .def_132))))))) (let ((.def_145 (not .loc.12))) (let ((.def_150 (= Y_16 .x.461))) (let ((.def_152 (= L_16 .x.448))) (let ((.def_155 (= Z_16 .x.462))) (let ((.def_158 (= A1_16 .x.463))) (let ((.def_171 (select D_16 K_16))) (let ((.def_176 (select D_16 W_16))) (let ((.def_181 (<= 100000 P_16))) (let ((.def_196 (not .loc.9))) (let ((.def_201 (= P_16 .x.452))) (let ((.def_203 (= M_16 .x.449))) (let ((.def_211 (and .def_132 .def_152))) (let ((.def_230 (= R_16 0))) (let ((.def_234 (and .def_203 .def_211))) (let ((.def_263 (and .def_158 (and .def_155 (and .def_150 (and .def_98 (and .def_95 (and .def_92 (and .def_89 (and .def_86 (and .def_201 .def_234))))))))))) (let ((.def_278 (and .def_203 (and .def_152 (and .def_83 (and C1_9 .def_79)))))) (let ((.def_288 (and .loc.5 (and .def_158 (and .def_155 (and .def_150 (and .def_98 (and .def_95 (and .def_92 (and .def_89 (and .def_86 (and .def_201 .def_278)))))))))))) (let ((.def_299 (and .loc.5 .def_263))) (let ((.def_319 (<= 100000 N_16))) (let ((.def_332 (= O_16 .x.451))) (let ((.def_334 (= N_16 .x.450))) (let ((.def_401 (= G_16 .x.443))) (let ((.def_403 (= E_16 .x.441))) (let ((.def_406 (= I_16 .x.445))) (let ((.def_409 (= R_16 .x.454))) (let ((.def_440 (store C1_0 .x.459 1))) (let ((.def_470 (= D1_2 E1_1))) (let ((.def_484 (and .def_86 (and .def_201 (and .def_332 (and .def_334 (and .def_203 (and .def_152 (and .def_83 (and .def_406 (and .def_401 (and .def_79 .def_403)))))))))))) (let ((.def_514 (or C1_9 (and (and (= E1_1 (select .def_176 (+ (* 4 N_16) U_16))) (not .def_319)) (= D1_2 (select .def_171 (+ (* 4 N_16) S_16))))))) (and (and (= J_16 .x.446) (and (= H_16 .x.444) (and (= F_16 .x.442) (and (= D_16 .x.440) (and (= A_16 .x.437) (= C_16 .x.439)))))) (or (or (or (and (or (or (or (and (or (or (or (or (or (or (or (and (or (and (or (and (or (and .def_49 (and .loc.7 (and .loc.6 (and .loc.5 (and (and (and (and (and (and (and .def_79 B1_16) .def_83) .def_86) .def_89) .def_92) .def_95) .def_98))))) (and (or C1_9 (and (= .x.456 0) (= .x.438 (store (store B_16 W_16 0) K_16 0)))) (and (and (or B1_16 (= .x.453 .x.456)) (and .def_45 (and (and .loc.8 .def_47) .def_114))) .def_118))) (and (and .def_123 .loc.12) .def_127)) (and (or C1_9 .def_130) (and (and .def_118 (and .def_45 (and .loc.11 (and .loc.10 (and .def_49 (and .loc.7 (and .loc.6 .def_137))))))) .def_145))) (and (and (and (and .def_150 .def_152) .def_155) .def_158) .loc.9)) (and (or C1_9 (and (= .x.461 .x.448) (and (= .x.461 (ite (= .x.462 .x.463) 1 0)) (and (= .x.462 (select .def_171 (+ (* 4 P_16) S_16))) (and (= .x.463 (select .def_176 (+ (* 4 P_16) U_16))) (not .def_181)))))) (and (and .def_145 (and .def_118 (and .def_114 (and .loc.11 (and .loc.10 (and .def_49 (and .loc.7 (and .loc.5 .def_137)))))))) .def_196))) (and .def_201 .def_203)) (and (or B1_16 (= (+ P_16 (* (- 1) .x.452)) (- 1))) (and .def_145 (and .def_118 (and .def_45 (and .def_114 (and .def_47 (and .def_123 (and .loc.11 (and .loc.9 (and .def_49 (and .def_150 (and .def_98 (and .def_95 (and .def_92 (and .def_89 (and .def_86 .def_211))))))))))))))))) (and (or C1_9 (and (= .x.452 0) (not .def_230))) (and .def_145 (and .def_118 (and .def_45 (and .def_114 (and .def_123 (and .loc.11 (and .loc.9 (and .def_49 (and .loc.7 (and .def_158 (and .def_155 (and .def_150 (and .def_98 (and .def_95 (and .def_92 (and .def_89 (and .def_86 .def_234))))))))))))))))))) (and (or C1_9 .def_230) (and .def_196 (and .def_118 (and .def_45 (and .def_114 (and .def_127 (and .def_123 (and .loc.12 (and .def_49 (and .loc.7 .def_263))))))))))) (and .def_196 (and .def_118 (and .def_114 (and .def_127 (and .def_123 (and .loc.12 (and .def_49 (and .loc.7 .def_288))))))))) (and (or C1_9 .def_181) (and .def_196 (and .def_118 (and .def_114 (and .def_127 (and .def_123 (and .loc.12 (and .def_49 (and .loc.7 .def_299)))))))))) (and .def_196 (and .def_145 (and .def_118 (and .def_47 (and .def_123 (and .loc.11 (and .def_49 (and .loc.6 .def_288))))))))) (and (or C1_9 .def_319) (and .def_196 (and .def_145 (and .def_118 (and .def_47 (and .def_123 (and .loc.11 (and .def_49 (and .loc.6 .def_299)))))))))) (and .def_332 .def_334)) (and (or C1_9 (= (+ N_16 (* (- 1) .x.450)) (- 1))) (and .def_145 (and .def_118 (and .def_114 (and .def_47 (and .def_127 (and .loc.10 (and .loc.9 (and .def_49 .def_299)))))))))) (and (or C1_9 (not .def_130)) (and .def_196 (and .def_145 (and .def_118 (and .def_45 (and .def_127 (and .def_123 (and .def_49 (and .loc.7 (and .loc.6 (and .def_158 (and .def_155 (and .def_150 (and .def_98 (and .def_95 (and .def_92 (and .def_89 (and .def_86 (and .def_201 (and .def_332 (and .def_234 .def_334)))))))))))))))))))))) (and .def_196 (and .def_145 (and .def_118 (and .def_127 (and .def_123 (and .def_49 (and .loc.7 (and .loc.6 (and .loc.5 (and .def_158 (and .def_155 (and .def_150 (and .def_98 (and .def_95 (and .def_92 (and .def_89 (and .def_86 (and .def_201 (and .def_332 (and .def_278 .def_334))))))))))))))))))))) (and (= X_16 .x.460) (and (= V_16 .x.458) (and (and (and .def_401 .def_403) .def_406) .def_409)))) (and (or C1_9 (and (and (= .x.445 0) (= .x.441 0)) (= C1_0 (store B_16 0 0)))) (and (or B1_16 (and (and (and (and (and (and (and (and (and (and (and (not (<= .x.437 .x.459)) (not (<= .x.437 .x.447))) (not (= .x.447 0))) (= .x.450 0)) (= .x.454 1)) (= .x.457 0)) (not (= .x.459 0))) (= .x.455 0)) (= (select .def_440 .x.447) 0)) (= (select C1_0 .x.459) 0)) (= .x.443 (store (store G_16 .x.459 400000) .x.447 400000))) (= .x.438 (store .def_440 .x.447 1)))) (and .def_145 (and .def_118 (and .def_45 (and .def_47 (and .def_127 (and .loc.10 (and .loc.9 (and .def_49 (and .loc.6 (and .def_150 (and .def_86 .def_152)))))))))))))) (and (and (or B1_16 (and (not .def_470) (= .x.454 0))) (and .def_145 (and .def_118 (and .def_47 (and .def_127 (and .def_123 (and .loc.9 (and .def_49 (and .loc.6 (and .loc.5 (and .def_158 (and .def_155 (and .def_150 (and .def_98 (and .def_95 (and .def_92 (and .def_89 .def_484))))))))))))))))) .def_514)) (and (or B1_16 .def_470) (and .def_514 (and .def_145 (and .def_118 (and .def_47 (and .def_127 (and .def_123 (and .loc.9 (and .def_49 (and .loc.6 (and .loc.5 (and .def_158 (and .def_155 (and .def_150 (and .def_98 (and .def_95 (and .def_92 (and .def_89 (and .def_409 .def_484)))))))))))))))))))))))))))))))))))))))))))))))))))))))))))))))))))) (state |.x.437| |.x.438| |.x.439| |.x.440| |.x.441| |.x.442| |.x.443| |.x.444| |.x.445| |.x.446| |.x.447| |.x.448| |.x.449| |.x.450| |.x.451| |.x.452| |.x.453| |.x.454| |.x.455| |.x.456| |.x.457| |.x.458| |.x.459| |.x.460| |.x.461| |.x.462| |.x.463| |B1_16| |.loc.9| |.loc.10| |.loc.11| |.loc.12| |.xtv.1| |.xtv.2| |.xtv.3|))))
(assert (forall ((|A_16| Int) (|B_16| (Array Int Int)) (|C_16| (Array Int Int)) (|D_16| (Array Int Int)) (|E_16| Int) (|F_16| Int) (|G_16| (Array Int Int)) (|H_16| (Array Int Int)) (|I_16| Int) (|J_16| Int) (|K_16| Int) (|L_16| Int) (|M_16| Int) (|N_16| Int) (|O_16| Int) (|P_16| Int) (|Q_16| Int) (|R_16| Int) (|S_16| Int) (|T_16| Int) (|U_16| Int) (|V_16| Int) (|W_16| Int) (|X_16| Int) (|Y_16| Int) (|Z_16| Int) (|A1_16| Int) (|C1_9| Bool) (|.loc.5| Bool) (|.loc.6| Bool) (|.loc.7| Bool) (|.loc.8| Bool) (|D1_2| Int) (|E1_1| Int) (|C1_0| (Array Int Int)) (|.x.446| Int) (|.x.444| (Array Int Int)) (|.x.442| Int) (|.x.440| (Array Int Int)) (|.x.437| Int) (|.x.439| (Array Int Int)) (|.x.438| (Array Int Int)) (|B1_16| Bool) (|.x.447| Int) (|.x.453| Int) (|.x.455| Int) (|.x.456| Int) (|.x.457| Int) (|.x.459| Int) (|.loc.10| Bool) (|.loc.12| Bool) (|.loc.11| Bool) (|.x.461| Int) (|.x.448| Int) (|.x.462| Int) (|.x.463| Int) (|.loc.9| Bool) (|.x.452| Int) (|.x.449| Int) (|.x.451| Int) (|.x.450| Int) (|.x.460| Int) (|.x.458| Int) (|.x.443| (Array Int Int)) (|.x.441| Int) (|.x.445| Int) (|.x.454| Int) (|.xtv.1| Int) (|.xtv.2| Int) (|.xtv.3| (Array Int Int))) (=> (state |A_16| |B_16| |C_16| |D_16| |E_16| |F_16| |G_16| |H_16| |I_16| |J_16| |K_16| |L_16| |M_16| |N_16| |O_16| |P_16| |Q_16| |R_16| |S_16| |T_16| |U_16| |V_16| |W_16| |X_16| |Y_16| |Z_16| |A1_16| |C1_9| |.loc.5| |.loc.6| |.loc.7| |.loc.8| |D1_2| |E1_1| |C1_0|) (not (and C1_9 (and .loc.8 (and (not .loc.7) (and .loc.5 (not .loc.6)))))))))
(check-sat)
